(set-info :smt-lib-version 2.6)
(set-logic QF_NIA)
(set-info :source |
Generated by: Cristina Borralleras, Daniel Larraz, Albert Oliveras, Enric Rodriguez-Carbonell, Albert Rubio
Generated on: 2017-04-27
Generator: VeryMax
Application: Termination proving
Target solver: barcelogic
|)
(set-info :license "https://creativecommons.org/licenses/by/4.0/")
(set-info :category "industrial")
(set-info :status sat)
(declare-fun Nl2main_x1 () Int)
(declare-fun Nl2main_y1 () Int)
(declare-fun Nl2main_x2 () Int)
(declare-fun Nl2main_y2 () Int)
(declare-fun Nl2main_x3 () Int)
(declare-fun Nl2main_y3 () Int)
(declare-fun lam0n0 () Int)
(declare-fun lam0n1 () Int)
(declare-fun lam0n2 () Int)
(declare-fun lam0n3 () Int)
(declare-fun lam0n4 () Int)
(declare-fun lam0n5 () Int)
(declare-fun lam0n6 () Int)
(declare-fun lam0n7 () Int)
(declare-fun lam0n8 () Int)
(declare-fun lam0n9 () Int)
(declare-fun Nl2CT1 () Int)
(declare-fun Nl2CT2 () Int)
(declare-fun Nl2CT3 () Int)
(declare-fun lam1n0 () Int)
(declare-fun lam1n1 () Int)
(declare-fun lam1n2 () Int)
(declare-fun lam1n3 () Int)
(declare-fun lam1n4 () Int)
(declare-fun lam1n5 () Int)
(declare-fun lam1n6 () Int)
(declare-fun lam1n7 () Int)
(declare-fun lam1n8 () Int)
(declare-fun lam1n9 () Int)
(declare-fun lam2n0 () Int)
(declare-fun lam2n1 () Int)
(declare-fun lam2n2 () Int)
(declare-fun lam2n3 () Int)
(declare-fun lam2n4 () Int)
(declare-fun lam2n5 () Int)
(declare-fun lam2n6 () Int)
(declare-fun lam2n7 () Int)
(declare-fun lam2n8 () Int)
(declare-fun lam2n9 () Int)
(declare-fun lam3n0 () Int)
(declare-fun lam3n1 () Int)
(declare-fun lam3n2 () Int)
(declare-fun lam3n3 () Int)
(declare-fun lam3n4 () Int)
(declare-fun lam3n5 () Int)
(declare-fun lam3n6 () Int)
(declare-fun lam3n7 () Int)
(declare-fun lam3n8 () Int)
(declare-fun lam3n9 () Int)
(declare-fun lam4n0 () Int)
(declare-fun lam4n1 () Int)
(declare-fun lam5n0 () Int)
(declare-fun lam5n1 () Int)
(declare-fun lam6n0 () Int)
(declare-fun lam6n1 () Int)
(declare-fun main_x () Int)
(declare-fun undef3 () Int)
(declare-fun main_y () Int)
(declare-fun undef4 () Int)
(declare-fun FV_main_x_1 () Int)
(declare-fun FV_main_y_1 () Int)
(declare-fun lam7n0 () Int)
(declare-fun lam7n1 () Int)
(declare-fun lam7n2 () Int)
(declare-fun lam7n3 () Int)
(declare-fun lam7n4 () Int)
(declare-fun lam7n5 () Int)
(declare-fun lam7n6 () Int)
(declare-fun lam8n0 () Int)
(declare-fun lam8n1 () Int)
(declare-fun lam8n2 () Int)
(declare-fun lam8n3 () Int)
(declare-fun lam8n4 () Int)
(declare-fun lam8n5 () Int)
(declare-fun lam9n0 () Int)
(declare-fun lam9n1 () Int)
(declare-fun lam9n2 () Int)
(declare-fun lam9n3 () Int)
(declare-fun lam9n4 () Int)
(declare-fun lam9n5 () Int)
(declare-fun lam9n6 () Int)
(declare-fun lam9n7 () Int)
(declare-fun lam10n0 () Int)
(declare-fun lam10n1 () Int)
(declare-fun lam10n2 () Int)
(declare-fun lam10n3 () Int)
(declare-fun lam10n4 () Int)
(declare-fun lam10n5 () Int)
(declare-fun lam10n6 () Int)
(declare-fun lam11n0 () Int)
(declare-fun lam11n1 () Int)
(declare-fun lam11n2 () Int)
(declare-fun lam11n3 () Int)
(declare-fun lam11n4 () Int)
(declare-fun lam11n5 () Int)
(declare-fun lam11n6 () Int)
(declare-fun lam11n7 () Int)
(declare-fun lam11n8 () Int)
(declare-fun lam12n0 () Int)
(declare-fun lam12n1 () Int)
(declare-fun lam12n2 () Int)
(declare-fun lam12n3 () Int)
(declare-fun lam12n4 () Int)
(declare-fun lam12n5 () Int)
(declare-fun lam12n6 () Int)
(declare-fun lam12n7 () Int)
(declare-fun lam13n0 () Int)
(declare-fun lam13n1 () Int)
(declare-fun lam13n2 () Int)
(declare-fun lam13n3 () Int)
(declare-fun lam13n4 () Int)
(declare-fun lam13n5 () Int)
(declare-fun lam13n6 () Int)
(declare-fun lam14n0 () Int)
(declare-fun lam14n1 () Int)
(declare-fun lam14n2 () Int)
(declare-fun lam14n3 () Int)
(declare-fun lam14n4 () Int)
(declare-fun lam14n5 () Int)
(declare-fun lam14n6 () Int)
(declare-fun lam14n7 () Int)
(declare-fun lam14n8 () Int)
(declare-fun lam15n0 () Int)
(declare-fun lam15n1 () Int)
(declare-fun lam15n2 () Int)
(declare-fun lam15n3 () Int)
(declare-fun lam15n4 () Int)
(declare-fun lam15n5 () Int)
(declare-fun lam15n6 () Int)
(declare-fun lam15n7 () Int)
(declare-fun lam16n0 () Int)
(declare-fun lam16n1 () Int)
(declare-fun lam16n2 () Int)
(declare-fun lam16n3 () Int)
(declare-fun lam16n4 () Int)
(declare-fun lam16n5 () Int)
(declare-fun lam16n6 () Int)
(declare-fun lam16n7 () Int)
(declare-fun lam16n8 () Int)
(declare-fun lam17n0 () Int)
(declare-fun lam17n1 () Int)
(declare-fun lam17n2 () Int)
(declare-fun lam17n3 () Int)
(declare-fun lam17n4 () Int)
(declare-fun lam17n5 () Int)
(declare-fun lam17n6 () Int)
(declare-fun lam18n0 () Int)
(declare-fun lam18n1 () Int)
(declare-fun lam18n2 () Int)
(declare-fun lam18n3 () Int)
(declare-fun lam18n4 () Int)
(declare-fun lam18n5 () Int)
(declare-fun lam18n6 () Int)
(declare-fun lam18n7 () Int)
(declare-fun lam18n8 () Int)
(declare-fun lam18n9 () Int)
(declare-fun lam19n0 () Int)
(declare-fun lam19n1 () Int)
(declare-fun lam19n2 () Int)
(declare-fun lam19n3 () Int)
(declare-fun lam19n4 () Int)
(declare-fun lam19n5 () Int)
(declare-fun lam19n6 () Int)
(declare-fun lam19n7 () Int)
(declare-fun lam19n8 () Int)
(declare-fun lam20n0 () Int)
(declare-fun lam20n1 () Int)
(declare-fun lam20n2 () Int)
(declare-fun lam20n3 () Int)
(declare-fun lam20n4 () Int)
(declare-fun lam20n5 () Int)
(declare-fun lam20n6 () Int)
(declare-fun lam21n0 () Int)
(declare-fun lam21n1 () Int)
(declare-fun lam21n2 () Int)
(declare-fun lam21n3 () Int)
(declare-fun lam21n4 () Int)
(declare-fun lam21n5 () Int)
(declare-fun lam21n6 () Int)
(declare-fun lam21n7 () Int)
(declare-fun lam21n8 () Int)
(declare-fun lam22n0 () Int)
(declare-fun lam22n1 () Int)
(declare-fun lam22n2 () Int)
(declare-fun lam22n3 () Int)
(declare-fun lam22n4 () Int)
(declare-fun lam22n5 () Int)
(declare-fun lam22n6 () Int)
(declare-fun lam22n7 () Int)
(declare-fun lam22n8 () Int)
(declare-fun lam23n0 () Int)
(declare-fun lam23n1 () Int)
(declare-fun lam23n2 () Int)
(declare-fun lam23n3 () Int)
(declare-fun lam23n4 () Int)
(declare-fun lam23n5 () Int)
(declare-fun lam23n6 () Int)
(declare-fun FV_main_x_2 () Int)
(declare-fun FV_main_y_2 () Int)
(assert ( and ( <= ( - 1 ) Nl2main_x1 ) ( <= Nl2main_x1 1 ) ( <= ( - 1 ) Nl2main_y1 ) ( <= Nl2main_y1 1 ) ( <= ( - 1 ) Nl2main_x2 ) ( <= Nl2main_x2 1 ) ( <= ( - 1 ) Nl2main_y2 ) ( <= Nl2main_y2 1 ) ( <= ( - 1 ) Nl2main_x3 ) ( <= Nl2main_x3 1 ) ( <= ( - 1 ) Nl2main_y3 ) ( <= Nl2main_y3 1 ) ))
(assert ( or ( and ( >= lam0n0 0 ) ( >= lam0n1 0 ) ( >= lam0n2 0 ) ( >= lam0n3 0 ) ( >= lam0n4 0 ) ( >= lam0n5 0 ) ( >= lam0n6 0 ) ( >= lam0n7 0 ) ( >= lam0n8 0 ) ( >= lam0n9 0 ) ( > ( + ( * ( - 4 ) lam0n0 ) ( * ( - 7 ) lam0n1 ) ( * ( - 6 ) lam0n2 ) ( * ( - 11 ) lam0n3 ) ( * ( - 10 ) lam0n4 ) ( * ( - 19 ) lam0n5 ) ( * ( - 18 ) lam0n6 ) ( * Nl2CT1 lam0n7 ) ( * Nl2CT2 lam0n8 ) ( * Nl2CT3 lam0n9 ) ( - 1 ) ) 0 ) ( = ( + ( * 1 lam0n0 ) ( * 1 lam0n1 ) ( * ( - 1 ) lam0n3 ) ( * ( - 1 ) lam0n4 ) ( * ( - 1 ) lam0n5 ) ( * Nl2main_x1 lam0n7 ) ( * Nl2main_x2 lam0n8 ) ( * Nl2main_x3 lam0n9 ) ) 0 ) ( = ( + ( * ( - 1 ) lam0n1 ) ( * ( - 1 ) lam0n2 ) ( * ( - 1 ) lam0n3 ) ( * 1 lam0n5 ) ( * 1 lam0n6 ) ( * Nl2main_y1 lam0n7 ) ( * Nl2main_y2 lam0n8 ) ( * Nl2main_y3 lam0n9 ) ) 0 ) ) ( and ( >= lam1n0 0 ) ( >= lam1n1 0 ) ( >= lam1n2 0 ) ( >= lam1n3 0 ) ( >= lam1n4 0 ) ( >= lam1n5 0 ) ( >= lam1n6 0 ) ( >= lam1n7 0 ) ( >= lam1n8 0 ) ( >= lam1n9 0 ) ( > ( + ( * ( - 4 ) lam1n0 ) ( * ( - 7 ) lam1n1 ) ( * ( - 6 ) lam1n2 ) ( * ( - 11 ) lam1n3 ) ( * ( - 10 ) lam1n4 ) ( * ( - 19 ) lam1n5 ) ( * ( - 18 ) lam1n6 ) ( * Nl2CT1 lam1n7 ) ( * Nl2CT2 lam1n8 ) ( * Nl2CT3 lam1n9 ) ( - 1 ( + ( + Nl2CT1 ( * Nl2main_x1 0 ) ) ( * Nl2main_y1 0 ) ) ) ) 0 ) ( = ( + ( * 1 lam1n0 ) ( * 1 lam1n1 ) ( * ( - 1 ) lam1n3 ) ( * ( - 1 ) lam1n4 ) ( * ( - 1 ) lam1n5 ) ( * Nl2main_x1 lam1n7 ) ( * Nl2main_x2 lam1n8 ) ( * Nl2main_x3 lam1n9 ) ( - ( + ( + 0 ( * Nl2main_x1 1 ) ) ( * Nl2main_y1 1 ) ) ) ) 0 ) ( = ( + ( * ( - 1 ) lam1n1 ) ( * ( - 1 ) lam1n2 ) ( * ( - 1 ) lam1n3 ) ( * 1 lam1n5 ) ( * 1 lam1n6 ) ( * Nl2main_y1 lam1n7 ) ( * Nl2main_y2 lam1n8 ) ( * Nl2main_y3 lam1n9 ) ( - ( + ( + 0 ( * Nl2main_x1 ( - 1 ) ) ) ( * Nl2main_y1 1 ) ) ) ) 0 ) ) ))
(assert ( or ( and ( >= lam0n0 0 ) ( >= lam0n1 0 ) ( >= lam0n2 0 ) ( >= lam0n3 0 ) ( >= lam0n4 0 ) ( >= lam0n5 0 ) ( >= lam0n6 0 ) ( >= lam0n7 0 ) ( >= lam0n8 0 ) ( >= lam0n9 0 ) ( > ( + ( * ( - 4 ) lam0n0 ) ( * ( - 7 ) lam0n1 ) ( * ( - 6 ) lam0n2 ) ( * ( - 11 ) lam0n3 ) ( * ( - 10 ) lam0n4 ) ( * ( - 19 ) lam0n5 ) ( * ( - 18 ) lam0n6 ) ( * Nl2CT1 lam0n7 ) ( * Nl2CT2 lam0n8 ) ( * Nl2CT3 lam0n9 ) ( - 1 ) ) 0 ) ( = ( + ( * 1 lam0n0 ) ( * 1 lam0n1 ) ( * ( - 1 ) lam0n3 ) ( * ( - 1 ) lam0n4 ) ( * ( - 1 ) lam0n5 ) ( * Nl2main_x1 lam0n7 ) ( * Nl2main_x2 lam0n8 ) ( * Nl2main_x3 lam0n9 ) ) 0 ) ( = ( + ( * ( - 1 ) lam0n1 ) ( * ( - 1 ) lam0n2 ) ( * ( - 1 ) lam0n3 ) ( * 1 lam0n5 ) ( * 1 lam0n6 ) ( * Nl2main_y1 lam0n7 ) ( * Nl2main_y2 lam0n8 ) ( * Nl2main_y3 lam0n9 ) ) 0 ) ) ( and ( >= lam2n0 0 ) ( >= lam2n1 0 ) ( >= lam2n2 0 ) ( >= lam2n3 0 ) ( >= lam2n4 0 ) ( >= lam2n5 0 ) ( >= lam2n6 0 ) ( >= lam2n7 0 ) ( >= lam2n8 0 ) ( >= lam2n9 0 ) ( > ( + ( * ( - 4 ) lam2n0 ) ( * ( - 7 ) lam2n1 ) ( * ( - 6 ) lam2n2 ) ( * ( - 11 ) lam2n3 ) ( * ( - 10 ) lam2n4 ) ( * ( - 19 ) lam2n5 ) ( * ( - 18 ) lam2n6 ) ( * Nl2CT1 lam2n7 ) ( * Nl2CT2 lam2n8 ) ( * Nl2CT3 lam2n9 ) ( - 1 ( + ( + Nl2CT2 ( * Nl2main_x2 0 ) ) ( * Nl2main_y2 0 ) ) ) ) 0 ) ( = ( + ( * 1 lam2n0 ) ( * 1 lam2n1 ) ( * ( - 1 ) lam2n3 ) ( * ( - 1 ) lam2n4 ) ( * ( - 1 ) lam2n5 ) ( * Nl2main_x1 lam2n7 ) ( * Nl2main_x2 lam2n8 ) ( * Nl2main_x3 lam2n9 ) ( - ( + ( + 0 ( * Nl2main_x2 1 ) ) ( * Nl2main_y2 1 ) ) ) ) 0 ) ( = ( + ( * ( - 1 ) lam2n1 ) ( * ( - 1 ) lam2n2 ) ( * ( - 1 ) lam2n3 ) ( * 1 lam2n5 ) ( * 1 lam2n6 ) ( * Nl2main_y1 lam2n7 ) ( * Nl2main_y2 lam2n8 ) ( * Nl2main_y3 lam2n9 ) ( - ( + ( + 0 ( * Nl2main_x2 ( - 1 ) ) ) ( * Nl2main_y2 1 ) ) ) ) 0 ) ) ))
(assert ( or ( and ( >= lam0n0 0 ) ( >= lam0n1 0 ) ( >= lam0n2 0 ) ( >= lam0n3 0 ) ( >= lam0n4 0 ) ( >= lam0n5 0 ) ( >= lam0n6 0 ) ( >= lam0n7 0 ) ( >= lam0n8 0 ) ( >= lam0n9 0 ) ( > ( + ( * ( - 4 ) lam0n0 ) ( * ( - 7 ) lam0n1 ) ( * ( - 6 ) lam0n2 ) ( * ( - 11 ) lam0n3 ) ( * ( - 10 ) lam0n4 ) ( * ( - 19 ) lam0n5 ) ( * ( - 18 ) lam0n6 ) ( * Nl2CT1 lam0n7 ) ( * Nl2CT2 lam0n8 ) ( * Nl2CT3 lam0n9 ) ( - 1 ) ) 0 ) ( = ( + ( * 1 lam0n0 ) ( * 1 lam0n1 ) ( * ( - 1 ) lam0n3 ) ( * ( - 1 ) lam0n4 ) ( * ( - 1 ) lam0n5 ) ( * Nl2main_x1 lam0n7 ) ( * Nl2main_x2 lam0n8 ) ( * Nl2main_x3 lam0n9 ) ) 0 ) ( = ( + ( * ( - 1 ) lam0n1 ) ( * ( - 1 ) lam0n2 ) ( * ( - 1 ) lam0n3 ) ( * 1 lam0n5 ) ( * 1 lam0n6 ) ( * Nl2main_y1 lam0n7 ) ( * Nl2main_y2 lam0n8 ) ( * Nl2main_y3 lam0n9 ) ) 0 ) ) ( and ( >= lam3n0 0 ) ( >= lam3n1 0 ) ( >= lam3n2 0 ) ( >= lam3n3 0 ) ( >= lam3n4 0 ) ( >= lam3n5 0 ) ( >= lam3n6 0 ) ( >= lam3n7 0 ) ( >= lam3n8 0 ) ( >= lam3n9 0 ) ( > ( + ( * ( - 4 ) lam3n0 ) ( * ( - 7 ) lam3n1 ) ( * ( - 6 ) lam3n2 ) ( * ( - 11 ) lam3n3 ) ( * ( - 10 ) lam3n4 ) ( * ( - 19 ) lam3n5 ) ( * ( - 18 ) lam3n6 ) ( * Nl2CT1 lam3n7 ) ( * Nl2CT2 lam3n8 ) ( * Nl2CT3 lam3n9 ) ( - 1 ( + ( + Nl2CT3 ( * Nl2main_x3 0 ) ) ( * Nl2main_y3 0 ) ) ) ) 0 ) ( = ( + ( * 1 lam3n0 ) ( * 1 lam3n1 ) ( * ( - 1 ) lam3n3 ) ( * ( - 1 ) lam3n4 ) ( * ( - 1 ) lam3n5 ) ( * Nl2main_x1 lam3n7 ) ( * Nl2main_x2 lam3n8 ) ( * Nl2main_x3 lam3n9 ) ( - ( + ( + 0 ( * Nl2main_x3 1 ) ) ( * Nl2main_y3 1 ) ) ) ) 0 ) ( = ( + ( * ( - 1 ) lam3n1 ) ( * ( - 1 ) lam3n2 ) ( * ( - 1 ) lam3n3 ) ( * 1 lam3n5 ) ( * 1 lam3n6 ) ( * Nl2main_y1 lam3n7 ) ( * Nl2main_y2 lam3n8 ) ( * Nl2main_y3 lam3n9 ) ( - ( + ( + 0 ( * Nl2main_x3 ( - 1 ) ) ) ( * Nl2main_y3 1 ) ) ) ) 0 ) ) ))
(assert ( and ( <= ( + Nl2CT1 ( * Nl2main_x1 FV_main_x_1 ) ( * Nl2main_y1 FV_main_y_1 ) ) 0 ) ( <= ( + Nl2CT2 ( * Nl2main_x2 FV_main_x_1 ) ( * Nl2main_y2 FV_main_y_1 ) ) 0 ) ( <= ( + Nl2CT3 ( * Nl2main_x3 FV_main_x_1 ) ( * Nl2main_y3 FV_main_y_1 ) ) 0 ) ))
(assert ( or ( and ( >= lam7n0 0 ) ( >= lam7n1 0 ) ( >= lam7n2 0 ) ( >= lam7n3 0 ) ( >= lam7n4 0 ) ( >= lam7n5 0 ) ( >= lam7n6 0 ) ( > ( + ( * 5 lam7n0 ) ( * 8 lam7n1 ) ( * ( - 6 ) lam7n2 ) ( * ( - 11 ) lam7n3 ) ( * Nl2CT1 lam7n4 ) ( * Nl2CT2 lam7n5 ) ( * Nl2CT3 lam7n6 ) ( - 1 ) ) 0 ) ( = ( + ( * ( - 1 ) lam7n0 ) ( * ( - 1 ) lam7n1 ) ( * ( - 1 ) lam7n3 ) ( * Nl2main_x1 lam7n4 ) ( * Nl2main_x2 lam7n5 ) ( * Nl2main_x3 lam7n6 ) ) 0 ) ( = ( + ( * 1 lam7n1 ) ( * ( - 1 ) lam7n2 ) ( * ( - 1 ) lam7n3 ) ( * Nl2main_y1 lam7n4 ) ( * Nl2main_y2 lam7n5 ) ( * Nl2main_y3 lam7n6 ) ) 0 ) ) ( and ( >= lam8n0 0 ) ( >= lam8n1 0 ) ( >= lam8n2 0 ) ( >= lam8n3 0 ) ( >= lam8n4 0 ) ( >= lam8n5 0 ) ( > ( + ( * 5 lam8n0 ) ( * 8 lam8n1 ) ( * 7 lam8n2 ) ( * Nl2CT1 lam8n3 ) ( * Nl2CT2 lam8n4 ) ( * Nl2CT3 lam8n5 ) ( - 1 ) ) 0 ) ( = ( + ( * ( - 1 ) lam8n0 ) ( * ( - 1 ) lam8n1 ) ( * Nl2main_x1 lam8n3 ) ( * Nl2main_x2 lam8n4 ) ( * Nl2main_x3 lam8n5 ) ) 0 ) ( = ( + ( * 1 lam8n1 ) ( * 1 lam8n2 ) ( * Nl2main_y1 lam8n3 ) ( * Nl2main_y2 lam8n4 ) ( * Nl2main_y3 lam8n5 ) ) 0 ) ) ( and ( >= lam9n0 0 ) ( >= lam9n1 0 ) ( >= lam9n2 0 ) ( >= lam9n3 0 ) ( >= lam9n4 0 ) ( >= lam9n5 0 ) ( >= lam9n6 0 ) ( >= lam9n7 0 ) ( > ( + ( * 5 lam9n0 ) ( * ( - 7 ) lam9n1 ) ( * ( - 6 ) lam9n2 ) ( * ( - 11 ) lam9n3 ) ( * ( - 19 ) lam9n4 ) ( * Nl2CT1 lam9n5 ) ( * Nl2CT2 lam9n6 ) ( * Nl2CT3 lam9n7 ) ( - 1 ) ) 0 ) ( = ( + ( * ( - 1 ) lam9n0 ) ( * 1 lam9n1 ) ( * ( - 1 ) lam9n3 ) ( * ( - 1 ) lam9n4 ) ( * Nl2main_x1 lam9n5 ) ( * Nl2main_x2 lam9n6 ) ( * Nl2main_x3 lam9n7 ) ) 0 ) ( = ( + ( * ( - 1 ) lam9n1 ) ( * ( - 1 ) lam9n2 ) ( * ( - 1 ) lam9n3 ) ( * 1 lam9n4 ) ( * Nl2main_y1 lam9n5 ) ( * Nl2main_y2 lam9n6 ) ( * Nl2main_y3 lam9n7 ) ) 0 ) ) ( and ( >= lam10n0 0 ) ( >= lam10n1 0 ) ( >= lam10n2 0 ) ( >= lam10n3 0 ) ( >= lam10n4 0 ) ( >= lam10n5 0 ) ( >= lam10n6 0 ) ( > ( + ( * 5 lam10n0 ) ( * ( - 11 ) lam10n1 ) ( * 20 lam10n2 ) ( * 19 lam10n3 ) ( * Nl2CT1 lam10n4 ) ( * Nl2CT2 lam10n5 ) ( * Nl2CT3 lam10n6 ) ( - 1 ) ) 0 ) ( = ( + ( * ( - 1 ) lam10n0 ) ( * ( - 1 ) lam10n1 ) ( * 1 lam10n2 ) ( * Nl2main_x1 lam10n4 ) ( * Nl2main_x2 lam10n5 ) ( * Nl2main_x3 lam10n6 ) ) 0 ) ( = ( + ( * ( - 1 ) lam10n1 ) ( * ( - 1 ) lam10n2 ) ( * ( - 1 ) lam10n3 ) ( * Nl2main_y1 lam10n4 ) ( * Nl2main_y2 lam10n5 ) ( * Nl2main_y3 lam10n6 ) ) 0 ) ) ( and ( >= lam11n0 0 ) ( >= lam11n1 0 ) ( >= lam11n2 0 ) ( >= lam11n3 0 ) ( >= lam11n4 0 ) ( >= lam11n5 0 ) ( >= lam11n6 0 ) ( >= lam11n7 0 ) ( >= lam11n8 0 ) ( > ( + ( * ( - 4 ) lam11n0 ) ( * 8 lam11n1 ) ( * ( - 6 ) lam11n2 ) ( * ( - 11 ) lam11n3 ) ( * ( - 10 ) lam11n4 ) ( * ( - 18 ) lam11n5 ) ( * Nl2CT1 lam11n6 ) ( * Nl2CT2 lam11n7 ) ( * Nl2CT3 lam11n8 ) ( - 1 ) ) 0 ) ( = ( + ( * 1 lam11n0 ) ( * ( - 1 ) lam11n1 ) ( * ( - 1 ) lam11n3 ) ( * ( - 1 ) lam11n4 ) ( * Nl2main_x1 lam11n6 ) ( * Nl2main_x2 lam11n7 ) ( * Nl2main_x3 lam11n8 ) ) 0 ) ( = ( + ( * 1 lam11n1 ) ( * ( - 1 ) lam11n2 ) ( * ( - 1 ) lam11n3 ) ( * 1 lam11n5 ) ( * Nl2main_y1 lam11n6 ) ( * Nl2main_y2 lam11n7 ) ( * Nl2main_y3 lam11n8 ) ) 0 ) ) ( and ( >= lam12n0 0 ) ( >= lam12n1 0 ) ( >= lam12n2 0 ) ( >= lam12n3 0 ) ( >= lam12n4 0 ) ( >= lam12n5 0 ) ( >= lam12n6 0 ) ( >= lam12n7 0 ) ( > ( + ( * ( - 4 ) lam12n0 ) ( * 8 lam12n1 ) ( * 7 lam12n2 ) ( * ( - 11 ) lam12n3 ) ( * ( - 10 ) lam12n4 ) ( * Nl2CT1 lam12n5 ) ( * Nl2CT2 lam12n6 ) ( * Nl2CT3 lam12n7 ) ( - 1 ) ) 0 ) ( = ( + ( * 1 lam12n0 ) ( * ( - 1 ) lam12n1 ) ( * ( - 1 ) lam12n3 ) ( * ( - 1 ) lam12n4 ) ( * Nl2main_x1 lam12n5 ) ( * Nl2main_x2 lam12n6 ) ( * Nl2main_x3 lam12n7 ) ) 0 ) ( = ( + ( * 1 lam12n1 ) ( * 1 lam12n2 ) ( * ( - 1 ) lam12n3 ) ( * Nl2main_y1 lam12n5 ) ( * Nl2main_y2 lam12n6 ) ( * Nl2main_y3 lam12n7 ) ) 0 ) ) ( and ( >= lam13n0 0 ) ( >= lam13n1 0 ) ( >= lam13n2 0 ) ( >= lam13n3 0 ) ( >= lam13n4 0 ) ( >= lam13n5 0 ) ( >= lam13n6 0 ) ( > ( + ( * ( - 4 ) lam13n0 ) ( * 8 lam13n1 ) ( * 7 lam13n2 ) ( * 12 lam13n3 ) ( * Nl2CT1 lam13n4 ) ( * Nl2CT2 lam13n5 ) ( * Nl2CT3 lam13n6 ) ( - 1 ) ) 0 ) ( = ( + ( * 1 lam13n0 ) ( * ( - 1 ) lam13n1 ) ( * 1 lam13n3 ) ( * Nl2main_x1 lam13n4 ) ( * Nl2main_x2 lam13n5 ) ( * Nl2main_x3 lam13n6 ) ) 0 ) ( = ( + ( * 1 lam13n1 ) ( * 1 lam13n2 ) ( * 1 lam13n3 ) ( * Nl2main_y1 lam13n4 ) ( * Nl2main_y2 lam13n5 ) ( * Nl2main_y3 lam13n6 ) ) 0 ) ) ( and ( >= lam14n0 0 ) ( >= lam14n1 0 ) ( >= lam14n2 0 ) ( >= lam14n3 0 ) ( >= lam14n4 0 ) ( >= lam14n5 0 ) ( >= lam14n6 0 ) ( >= lam14n7 0 ) ( >= lam14n8 0 ) ( > ( + ( * ( - 4 ) lam14n0 ) ( * ( - 7 ) lam14n1 ) ( * ( - 11 ) lam14n2 ) ( * ( - 10 ) lam14n3 ) ( * 19 lam14n4 ) ( * ( - 19 ) lam14n5 ) ( * Nl2CT1 lam14n6 ) ( * Nl2CT2 lam14n7 ) ( * Nl2CT3 lam14n8 ) ( - 1 ) ) 0 ) ( = ( + ( * 1 lam14n0 ) ( * 1 lam14n1 ) ( * ( - 1 ) lam14n2 ) ( * ( - 1 ) lam14n3 ) ( * ( - 1 ) lam14n5 ) ( * Nl2main_x1 lam14n6 ) ( * Nl2main_x2 lam14n7 ) ( * Nl2main_x3 lam14n8 ) ) 0 ) ( = ( + ( * ( - 1 ) lam14n1 ) ( * ( - 1 ) lam14n2 ) ( * ( - 1 ) lam14n4 ) ( * 1 lam14n5 ) ( * Nl2main_y1 lam14n6 ) ( * Nl2main_y2 lam14n7 ) ( * Nl2main_y3 lam14n8 ) ) 0 ) ) ( and ( >= lam15n0 0 ) ( >= lam15n1 0 ) ( >= lam15n2 0 ) ( >= lam15n3 0 ) ( >= lam15n4 0 ) ( >= lam15n5 0 ) ( >= lam15n6 0 ) ( >= lam15n7 0 ) ( > ( + ( * ( - 4 ) lam15n0 ) ( * ( - 6 ) lam15n1 ) ( * ( - 11 ) lam15n2 ) ( * ( - 10 ) lam15n3 ) ( * 20 lam15n4 ) ( * Nl2CT1 lam15n5 ) ( * Nl2CT2 lam15n6 ) ( * Nl2CT3 lam15n7 ) ( - 1 ) ) 0 ) ( = ( + ( * 1 lam15n0 ) ( * ( - 1 ) lam15n2 ) ( * ( - 1 ) lam15n3 ) ( * 1 lam15n4 ) ( * Nl2main_x1 lam15n5 ) ( * Nl2main_x2 lam15n6 ) ( * Nl2main_x3 lam15n7 ) ) 0 ) ( = ( + ( * ( - 1 ) lam15n1 ) ( * ( - 1 ) lam15n2 ) ( * ( - 1 ) lam15n4 ) ( * Nl2main_y1 lam15n5 ) ( * Nl2main_y2 lam15n6 ) ( * Nl2main_y3 lam15n7 ) ) 0 ) ) ( and ( >= lam16n0 0 ) ( >= lam16n1 0 ) ( >= lam16n2 0 ) ( >= lam16n3 0 ) ( >= lam16n4 0 ) ( >= lam16n5 0 ) ( >= lam16n6 0 ) ( >= lam16n7 0 ) ( >= lam16n8 0 ) ( > ( + ( * ( - 7 ) lam16n0 ) ( * ( - 6 ) lam16n1 ) ( * 11 lam16n2 ) ( * ( - 11 ) lam16n3 ) ( * ( - 19 ) lam16n4 ) ( * ( - 18 ) lam16n5 ) ( * Nl2CT1 lam16n6 ) ( * Nl2CT2 lam16n7 ) ( * Nl2CT3 lam16n8 ) ( - 1 ) ) 0 ) ( = ( + ( * 1 lam16n0 ) ( * 1 lam16n2 ) ( * ( - 1 ) lam16n3 ) ( * ( - 1 ) lam16n4 ) ( * Nl2main_x1 lam16n6 ) ( * Nl2main_x2 lam16n7 ) ( * Nl2main_x3 lam16n8 ) ) 0 ) ( = ( + ( * ( - 1 ) lam16n0 ) ( * ( - 1 ) lam16n1 ) ( * ( - 1 ) lam16n3 ) ( * 1 lam16n4 ) ( * 1 lam16n5 ) ( * Nl2main_y1 lam16n6 ) ( * Nl2main_y2 lam16n7 ) ( * Nl2main_y3 lam16n8 ) ) 0 ) ) ( and ( >= lam17n0 0 ) ( >= lam17n1 0 ) ( >= lam17n2 0 ) ( >= lam17n3 0 ) ( >= lam17n4 0 ) ( >= lam17n5 0 ) ( >= lam17n6 0 ) ( > ( + ( * ( - 6 ) lam17n0 ) ( * 11 lam17n1 ) ( * ( - 11 ) lam17n2 ) ( * 20 lam17n3 ) ( * Nl2CT1 lam17n4 ) ( * Nl2CT2 lam17n5 ) ( * Nl2CT3 lam17n6 ) ( - 1 ) ) 0 ) ( = ( + ( * 1 lam17n1 ) ( * ( - 1 ) lam17n2 ) ( * 1 lam17n3 ) ( * Nl2main_x1 lam17n4 ) ( * Nl2main_x2 lam17n5 ) ( * Nl2main_x3 lam17n6 ) ) 0 ) ( = ( + ( * ( - 1 ) lam17n0 ) ( * ( - 1 ) lam17n2 ) ( * ( - 1 ) lam17n3 ) ( * Nl2main_y1 lam17n4 ) ( * Nl2main_y2 lam17n5 ) ( * Nl2main_y3 lam17n6 ) ) 0 ) ) ( and ( >= lam18n0 0 ) ( >= lam18n1 0 ) ( >= lam18n2 0 ) ( >= lam18n3 0 ) ( >= lam18n4 0 ) ( >= lam18n5 0 ) ( >= lam18n6 0 ) ( >= lam18n7 0 ) ( >= lam18n8 0 ) ( >= lam18n9 0 ) ( > ( + ( * ( - 4 ) lam18n0 ) ( * ( - 7 ) lam18n1 ) ( * ( - 6 ) lam18n2 ) ( * 12 lam18n3 ) ( * ( - 10 ) lam18n4 ) ( * ( - 19 ) lam18n5 ) ( * ( - 18 ) lam18n6 ) ( * Nl2CT1 lam18n7 ) ( * Nl2CT2 lam18n8 ) ( * Nl2CT3 lam18n9 ) ( - 1 ) ) 0 ) ( = ( + ( * 1 lam18n0 ) ( * 1 lam18n1 ) ( * 1 lam18n3 ) ( * ( - 1 ) lam18n4 ) ( * ( - 1 ) lam18n5 ) ( * Nl2main_x1 lam18n7 ) ( * Nl2main_x2 lam18n8 ) ( * Nl2main_x3 lam18n9 ) ) 0 ) ( = ( + ( * ( - 1 ) lam18n1 ) ( * ( - 1 ) lam18n2 ) ( * 1 lam18n3 ) ( * 1 lam18n5 ) ( * 1 lam18n6 ) ( * Nl2main_y1 lam18n7 ) ( * Nl2main_y2 lam18n8 ) ( * Nl2main_y3 lam18n9 ) ) 0 ) ) ( and ( >= lam19n0 0 ) ( >= lam19n1 0 ) ( >= lam19n2 0 ) ( >= lam19n3 0 ) ( >= lam19n4 0 ) ( >= lam19n5 0 ) ( >= lam19n6 0 ) ( >= lam19n7 0 ) ( >= lam19n8 0 ) ( > ( + ( * ( - 7 ) lam19n0 ) ( * ( - 6 ) lam19n1 ) ( * 12 lam19n2 ) ( * 11 lam19n3 ) ( * ( - 19 ) lam19n4 ) ( * ( - 18 ) lam19n5 ) ( * Nl2CT1 lam19n6 ) ( * Nl2CT2 lam19n7 ) ( * Nl2CT3 lam19n8 ) ( - 1 ) ) 0 ) ( = ( + ( * 1 lam19n0 ) ( * 1 lam19n2 ) ( * 1 lam19n3 ) ( * ( - 1 ) lam19n4 ) ( * Nl2main_x1 lam19n6 ) ( * Nl2main_x2 lam19n7 ) ( * Nl2main_x3 lam19n8 ) ) 0 ) ( = ( + ( * ( - 1 ) lam19n0 ) ( * ( - 1 ) lam19n1 ) ( * 1 lam19n2 ) ( * 1 lam19n4 ) ( * 1 lam19n5 ) ( * Nl2main_y1 lam19n6 ) ( * Nl2main_y2 lam19n7 ) ( * Nl2main_y3 lam19n8 ) ) 0 ) ) ( and ( >= lam20n0 0 ) ( >= lam20n1 0 ) ( >= lam20n2 0 ) ( >= lam20n3 0 ) ( >= lam20n4 0 ) ( >= lam20n5 0 ) ( >= lam20n6 0 ) ( > ( + ( * ( - 6 ) lam20n0 ) ( * 12 lam20n1 ) ( * 11 lam20n2 ) ( * 20 lam20n3 ) ( * Nl2CT1 lam20n4 ) ( * Nl2CT2 lam20n5 ) ( * Nl2CT3 lam20n6 ) ( - 1 ) ) 0 ) ( = ( + ( * 1 lam20n1 ) ( * 1 lam20n2 ) ( * 1 lam20n3 ) ( * Nl2main_x1 lam20n4 ) ( * Nl2main_x2 lam20n5 ) ( * Nl2main_x3 lam20n6 ) ) 0 ) ( = ( + ( * ( - 1 ) lam20n0 ) ( * 1 lam20n1 ) ( * ( - 1 ) lam20n3 ) ( * Nl2main_y1 lam20n4 ) ( * Nl2main_y2 lam20n5 ) ( * Nl2main_y3 lam20n6 ) ) 0 ) ) ( and ( >= lam21n0 0 ) ( >= lam21n1 0 ) ( >= lam21n2 0 ) ( >= lam21n3 0 ) ( >= lam21n4 0 ) ( >= lam21n5 0 ) ( >= lam21n6 0 ) ( >= lam21n7 0 ) ( >= lam21n8 0 ) ( > ( + ( * ( - 4 ) lam21n0 ) ( * 7 lam21n1 ) ( * ( - 7 ) lam21n2 ) ( * ( - 11 ) lam21n3 ) ( * ( - 10 ) lam21n4 ) ( * ( - 19 ) lam21n5 ) ( * Nl2CT1 lam21n6 ) ( * Nl2CT2 lam21n7 ) ( * Nl2CT3 lam21n8 ) ( - 1 ) ) 0 ) ( = ( + ( * 1 lam21n0 ) ( * 1 lam21n2 ) ( * ( - 1 ) lam21n3 ) ( * ( - 1 ) lam21n4 ) ( * ( - 1 ) lam21n5 ) ( * Nl2main_x1 lam21n6 ) ( * Nl2main_x2 lam21n7 ) ( * Nl2main_x3 lam21n8 ) ) 0 ) ( = ( + ( * 1 lam21n1 ) ( * ( - 1 ) lam21n2 ) ( * ( - 1 ) lam21n3 ) ( * 1 lam21n5 ) ( * Nl2main_y1 lam21n6 ) ( * Nl2main_y2 lam21n7 ) ( * Nl2main_y3 lam21n8 ) ) 0 ) ) ( and ( >= lam22n0 0 ) ( >= lam22n1 0 ) ( >= lam22n2 0 ) ( >= lam22n3 0 ) ( >= lam22n4 0 ) ( >= lam22n5 0 ) ( >= lam22n6 0 ) ( >= lam22n7 0 ) ( >= lam22n8 0 ) ( > ( + ( * ( - 4 ) lam22n0 ) ( * 7 lam22n1 ) ( * ( - 7 ) lam22n2 ) ( * 12 lam22n3 ) ( * ( - 10 ) lam22n4 ) ( * ( - 19 ) lam22n5 ) ( * Nl2CT1 lam22n6 ) ( * Nl2CT2 lam22n7 ) ( * Nl2CT3 lam22n8 ) ( - 1 ) ) 0 ) ( = ( + ( * 1 lam22n0 ) ( * 1 lam22n2 ) ( * 1 lam22n3 ) ( * ( - 1 ) lam22n4 ) ( * ( - 1 ) lam22n5 ) ( * Nl2main_x1 lam22n6 ) ( * Nl2main_x2 lam22n7 ) ( * Nl2main_x3 lam22n8 ) ) 0 ) ( = ( + ( * 1 lam22n1 ) ( * ( - 1 ) lam22n2 ) ( * 1 lam22n3 ) ( * 1 lam22n5 ) ( * Nl2main_y1 lam22n6 ) ( * Nl2main_y2 lam22n7 ) ( * Nl2main_y3 lam22n8 ) ) 0 ) ) ( and ( >= lam23n0 0 ) ( >= lam23n1 0 ) ( >= lam23n2 0 ) ( >= lam23n3 0 ) ( >= lam23n4 0 ) ( >= lam23n5 0 ) ( >= lam23n6 0 ) ( > ( + ( * 7 lam23n0 ) ( * ( - 7 ) lam23n1 ) ( * 12 lam23n2 ) ( * 11 lam23n3 ) ( * Nl2CT1 lam23n4 ) ( * Nl2CT2 lam23n5 ) ( * Nl2CT3 lam23n6 ) ( - 1 ) ) 0 ) ( = ( + ( * 1 lam23n1 ) ( * 1 lam23n2 ) ( * 1 lam23n3 ) ( * Nl2main_x1 lam23n4 ) ( * Nl2main_x2 lam23n5 ) ( * Nl2main_x3 lam23n6 ) ) 0 ) ( = ( + ( * 1 lam23n0 ) ( * ( - 1 ) lam23n1 ) ( * 1 lam23n2 ) ( * Nl2main_y1 lam23n4 ) ( * Nl2main_y2 lam23n5 ) ( * Nl2main_y3 lam23n6 ) ) 0 ) ) ))
(assert ( and ( and ( <= ( + Nl2CT1 ( * Nl2main_x1 FV_main_x_2 ) ( * Nl2main_y1 FV_main_y_2 ) ) 0 ) ( <= ( + Nl2CT2 ( * Nl2main_x2 FV_main_x_2 ) ( * Nl2main_y2 FV_main_y_2 ) ) 0 ) ( <= ( + Nl2CT3 ( * Nl2main_x3 FV_main_x_2 ) ( * Nl2main_y3 FV_main_y_2 ) ) 0 ) ) ( and ( <= ( + ( - 4 ) FV_main_x_2 ) 0 ) ( <= ( + ( - 7 ) FV_main_x_2 ( * ( - 1 ) FV_main_y_2 ) ) 0 ) ( <= ( + ( - 6 ) ( * ( - 1 ) FV_main_y_2 ) ) 0 ) ( <= ( + ( - 11 ) ( * ( - 1 ) FV_main_x_2 ) ( * ( - 1 ) FV_main_y_2 ) ) 0 ) ( <= ( + ( - 10 ) ( * ( - 1 ) FV_main_x_2 ) ) 0 ) ( <= ( + ( - 19 ) ( * ( - 1 ) FV_main_x_2 ) FV_main_y_2 ) 0 ) ( <= ( + ( - 18 ) FV_main_y_2 ) 0 ) ) ))
(check-sat)
(exit)
